
Gurobi 9.1.0 (win64) logging started Sat Jan  2 09:22:57 2021

Changed value of parameter LogFile to logs/iteration13
   Prev:   Default: 
Gurobi Optimizer version 9.1.0 build v9.1.0rc0 (win64)
Thread count: 4 physical cores, 8 logical processors, using up to 8 threads
Optimize a model with 136 rows, 736 columns and 2785 nonzeros
Model fingerprint: 0xd192f2ac
Coefficient statistics:
  Matrix range     [1e+00, 1e+00]
  Objective range  [9e+02, 3e+03]
  Bounds range     [0e+00, 0e+00]
  RHS range        [1e+00, 1e+00]
Presolve removed 9 rows and 50 columns
Presolve time: 0.00s
Presolved: 127 rows, 686 columns, 2734 nonzeros

Iteration    Objective       Primal Inf.    Dual Inf.      Time
       0    1.2042333e+04   1.270000e+02   0.000000e+00      0s
     304    8.1020361e+04   0.000000e+00   0.000000e+00      0s

Solved in 304 iterations and 0.01 seconds
Optimal objective  8.102036111e+04

Solutionx[25] 0.666667 
x[70] 1.000000 
x[72] 1.000000 
x[76] 1.000000 
x[118] 1.000000 
x[124] 1.000000 
x[127] 0.333333 
x[129] 0.666667 
x[130] 0.666667 
x[131] 1.000000 
x[132] 1.000000 
x[261] 0.666667 
x[264] 0.333333 
x[436] 0.666667 
x[819] 0.333333 
x[1336] 0.666667 
x[1772] 0.333333 
x[2456] 0.333333 
x[2915] 0.666667 
x[4760] 0.333333 
x[5967] 1.000000 
x[19151] 0.666667 
x[18798] 1.000000 
x[16166] 1.000000 
x[10403] 1.000000 
x[12310] 1.000000 
x[29867] 1.000000 
x[12011] 1.000000 
x[32032] 1.000000 
x[5984] 0.666667 
x[6136] 1.000000 
x[10840] 0.333333 
x[31320] 0.666667 
x[11331] 0.333333 
x[11806] 0.666667 
x[30139] 0.333333 
x[13863] 0.666667 
x[9050] 0.333333 
x[27762] 0.666667 
x[4941] 0.333333 
x[10384] 0.333333 
x[16656] 0.666667 
x[26767] 1.000000 
x[13413] 0.333333 
x[233] 0.333333 
x[7217] 1.000000 
x[13217] 1.000000 
x[1091] 0.333333 
x[1976] 0.333333 
x[2609] 0.333333 
x[13398] 0.666667 
x[15821] 0.666667 
x[18512] 1.000000 
x[356] 0.666667 
x[1296] 0.333333 
x[26625] 0.666667 
x[7369] 1.000000 
x[13814] 0.333333 
x[17149] 1.000000 
x[20201] 1.000000 
x[6986] 1.000000 
x[20329] 0.333333 
x[10162] 0.666667 
x[31465] 0.333333 
x[31815] 0.666667 
x[9195] 0.333333 
